
Gurobi 12.0.2 (win64) logging started Thu Jun  5 10:49:07 2025

Set parameter LogFile to value "C:\Ioana\_uni\honours\slp\algorithm\Main_files\results\others\prox_tubules\Task_009_Sample004_irr_gurobi.log"
Gurobi Optimizer version 12.0.2 build v12.0.2rc0 (win64 - Windows 11.0 (26100.2))

CPU model: Intel(R) Core(TM) Ultra 5 125H, instruction set [SSE2|AVX|AVX2]
Thread count: 14 physical cores, 18 logical processors, using up to 18 threads

Non-default parameters:
TimeLimit  2200

Optimize a model with 47658 rows, 34809 columns and 147856 nonzeros
Model fingerprint: 0x2ea47447
Variable types: 17415 continuous, 17394 integer (17394 binary)
Coefficient statistics:
  Matrix range     [1e-04, 8e+04]
  Objective range  [3e-05, 1e+01]
  Bounds range     [1e+00, 1e+03]
  RHS range        [1e+00, 1e+00]
Presolve removed 31251 rows and 21850 columns
Presolve time: 0.32s
Presolved: 16407 rows, 12959 columns, 54592 nonzeros
Variable types: 6413 continuous, 6546 integer (6546 binary)

Root relaxation: objective 3.394204e-03, 2568 iterations, 0.14 seconds (0.26 work units)

    Nodes    |    Current Node    |     Objective Bounds      |     Work
 Expl Unexpl |  Obj  Depth IntInf | Incumbent    BestBd   Gap | It/Node Time

     0     0    0.00339    0   27          -    0.00339      -     -    0s
H    0     0                       2.4483953    0.00339   100%     -    0s
     0     0    2.23064    0   38    2.44840    2.23064  8.89%     -    1s
     0     0    2.38195    0   29    2.44840    2.38195  2.71%     -    1s
     0     0    2.38922    0   28    2.44840    2.38922  2.42%     -    1s
     0     0    2.39133    0   22    2.44840    2.39133  2.33%     -    1s
     0     0    2.39133    0   22    2.44840    2.39133  2.33%     -    1s
     0     0    2.42903    0   20    2.44840    2.42903  0.79%     -    1s
     0     0    2.43112    0   19    2.44840    2.43112  0.71%     -    1s
     0     0    2.43129    0   14    2.44840    2.43129  0.70%     -    1s
     0     0    2.43141    0   13    2.44840    2.43141  0.69%     -    1s
     0     0    2.44332    0    8    2.44840    2.44332  0.21%     -    1s
     0     0    2.44352    0    2    2.44840    2.44352  0.20%     -    1s

Cutting planes:
  Gomory: 2
  Cover: 1
  MIR: 4
  Flow cover: 3
  Network: 1

Explored 1 nodes (5260 simplex iterations) in 1.85 seconds (1.83 work units)
Thread count was 18 (of 18 available processors)

Solution count 2: 2.4484 2.4484 

Optimal solution found (tolerance 1.00e-04)
Best objective 2.448395285974e+00, best bound 2.448395285974e+00, gap 0.0000%
